HUN,8,6,985
0,5,1,23,2,2,3,14,5,12,4,2
0,27,1,27,2,11,3,17,5,14,4,2
2,6,0,1,1,21,4,21,3,7,5,18
0,28,2,26,1,1,4,25,5,5,3,7
2,18,0,12,1,5,4,7,5,21,3,25
1,2,0,30,2,29,3,2,5,2,4,7
2,24,1,9,0,1,5,17,3,30,4,20
2,20,0,6,1,16,4,3,3,18,5,18
